(set-logic QF_S)
(declare-fun var0 () String)
(declare-fun var1 () String)
(declare-fun var2 () String)
(declare-fun var3 () String)
(declare-fun var4 () String)
(declare-fun var5 () String)
(declare-fun var6 () String)
(declare-fun var7 () String)
(declare-fun var8 () String)
(declare-fun var9 () String)
(declare-fun var10 () String)
(declare-fun var11 () String)
(declare-fun var12 () String)
(declare-fun var13 () String)
(declare-fun var14 () String)
(declare-fun var15 () String)
(declare-fun var16 () String)
(declare-fun var17 () String)
(declare-fun var18 () String)
(declare-fun var19 () String)
(declare-fun var20 () String)
(declare-fun var21 () String)
(declare-fun var22 () String)
(declare-fun var23 () String)
(declare-fun var24 () String)
(declare-fun var25 () String)
(declare-fun var26 () String)
(declare-fun var27 () String)
(declare-fun var28 () String)
(declare-fun var29 () String)
(declare-fun var30 () String)
(declare-fun var31 () String)
(declare-fun var32 () String)
(declare-fun var33 () String)
(declare-fun var34 () String)
(declare-fun var35 () String)
(declare-fun var36 () String)
(declare-fun var37 () String)
(declare-fun var38 () String)
(declare-fun var39 () String)
(declare-fun var40 () String)
(declare-fun var41 () String)
(declare-fun var42 () String)
(declare-fun var43 () String)
(declare-fun var44 () String)
(declare-fun var45 () String)
(declare-fun var46 () String)
(declare-fun var47 () String)
(declare-fun var48 () String)
(declare-fun var49 () String)
(declare-fun var50 () String)
(declare-fun var51 () String)
(declare-fun var52 () String)
(declare-fun var53 () String)
(declare-fun var54 () String)
(declare-fun var55 () String)
(declare-fun var56 () String)
(declare-fun var57 () String)
(declare-fun var58 () String)
(declare-fun var59 () String)
(declare-fun var60 () String)
(assert (= var0 (Concat var1 var2)))
(assert (= var2 (Concat var3 var4)))
(assert (= var4 (Concat var5 var6)))
(assert (= var6 (Concat var7 var8)))
(assert (= var8 (Concat var9 var10)))
(assert (= var10 (Concat var11 var12)))
(assert (= var12 (Concat var13 var14)))
(assert (= var14 (Concat var15 var16)))
(assert (= var16 (Concat var17 var18)))
(assert (= var18 (Concat var19 var20)))
(assert (= var20 (Concat var21 var22)))
(assert (= var22 (Concat var23 var24)))
(assert (= var24 (Concat var25 var26)))
(assert (= var26 (Concat var27 var28)))
(assert (= var28 (Concat var29 var30)))
(assert (= var30 (Concat var31 var32)))
(assert (= var32 (Concat var33 var34)))
(assert (= var34 (Concat var35 var36)))
(assert (= var36 (Concat var37 var38)))
(assert (= var38 (Concat var39 var40)))
(assert (= var40 (Concat var41 var42)))
(assert (= var42 (Concat var43 var44)))
(assert (= var44 (Concat var45 var46)))
(assert (= var46 (Concat var47 var48)))
(assert (= var48 (Concat var49 var50)))
(assert (= var50 (Concat var51 var52)))
(assert (= var52 (Concat var53 var54)))
(assert (= var54 (Concat var55 var56)))
(assert (= var56 (Concat var57 var58)))
(assert (= var58 (Concat var59 var60)))
(assert (= var0 "solution"))
(assert (= ">" (CharAt var55 519)))
(assert (= "G" (CharAt var43 110)))
(assert (= "o" (CharAt var0 696)))
(assert (= "b" (CharAt var51 804)))
(assert (= "X" (CharAt var5 735)))
(assert (= "O" (CharAt var53 73)))
(assert (= "." (CharAt var23 302)))
(assert (= "E" (CharAt var6 313)))
(assert (= "W" (CharAt var49 827)))
(assert (= "|" (CharAt var41 777)))
(assert (= "Z" (CharAt var5 968)))
(assert (= "c" (CharAt var27 468)))
(assert (= "2" (CharAt var33 435)))
(assert (= "y" (CharAt var32 424)))
(assert (= "F" (CharAt var21 91)))
(assert (= "X" (CharAt var28 107)))
(assert (= "E" (CharAt var24 682)))
(assert (= "?" (CharAt var51 353)))
(assert (= "\\" (CharAt var22 738)))
(assert (= "R" (CharAt var21 74)))
(assert (= "!" (CharAt var51 942)))
(assert (= "6" (CharAt var12 679)))
(assert (= "]" (CharAt var12 191)))
(assert (= "+" (CharAt var0 852)))
(assert (= "B" (CharAt var37 499)))
(assert (= "O" (CharAt var38 172)))
(assert (= "y" (CharAt var19 688)))
(assert (= "f" (CharAt var34 992)))
(assert (= "@" (CharAt var52 110)))
(assert (= ")" (CharAt var55 414)))
(assert (= "d" (CharAt var29 774)))
(assert (= "(" (CharAt var50 2)))
(assert (= "N" (CharAt var36 602)))
(assert (= "\"" (CharAt var39 605)))
(assert (= "6" (CharAt var59 99)))
(assert (= "5" (CharAt var19 877)))
(assert (= "2" (CharAt var17 6)))
(assert (= "n" (CharAt var12 520)))
(assert (= "j" (CharAt var37 912)))
(assert (= "7" (CharAt var3 688)))
(assert (= "o" (CharAt var36 512)))
(assert (= "S" (CharAt var42 430)))
(assert (= "]" (CharAt var20 800)))
(assert (= "]" (CharAt var53 56)))
(assert (= "p" (CharAt var49 949)))
(assert (= "L" (CharAt var11 421)))
(assert (= "Z" (CharAt var43 592)))
(assert (= "1" (CharAt var10 453)))
(assert (= "1" (CharAt var9 132)))
(assert (= "p" (CharAt var55 918)))
(assert (= "#" (CharAt var56 991)))
(assert (= "&" (CharAt var14 766)))
(assert (= "9" (CharAt var60 994)))
(assert (= "1" (CharAt var16 389)))
(assert (= "s" (CharAt var3 525)))
(assert (= "C" (CharAt var9 359)))
(assert (= "8" (CharAt var47 939)))
(assert (= "n" (CharAt var45 705)))
(assert (= "3" (CharAt var38 109)))
(assert (= "r" (CharAt var21 274)))
(assert (= "." (CharAt var44 726)))
(assert (= "k" (CharAt var39 336)))
(assert (= "1" (CharAt var23 232)))
(assert (= "N" (CharAt var28 382)))
(assert (= "-" (CharAt var43 171)))
(assert (= "h" (CharAt var33 44)))
(assert (= "J" (CharAt var23 389)))
(assert (= "L" (CharAt var45 664)))
(assert (= "D" (CharAt var10 46)))
(assert (= "J" (CharAt var30 148)))
(assert (= "`" (CharAt var5 973)))
(assert (= "a" (CharAt var51 857)))
(assert (= "*" (CharAt var4 754)))
(assert (= "3" (CharAt var36 256)))
(assert (= "^" (CharAt var3 933)))
(assert (= ")" (CharAt var2 844)))
(assert (= "7" (CharAt var22 933)))
(assert (= "m" (CharAt var32 282)))
(assert (= "d" (CharAt var12 721)))
(assert (= "e" (CharAt var28 224)))
(assert (= "!" (CharAt var49 189)))
(assert (= "8" (CharAt var60 908)))
(assert (= "{" (CharAt var7 456)))
(assert (= "X" (CharAt var17 957)))
(assert (= "8" (CharAt var47 38)))
(assert (= "@" (CharAt var39 419)))
(assert (= "=" (CharAt var47 377)))
(assert (= "R" (CharAt var19 16)))
(assert (= "+" (CharAt var21 354)))
(assert (= "w" (CharAt var60 985)))
(assert (= "h" (CharAt var23 547)))
(assert (= "O" (CharAt var28 443)))
(assert (= "`" (CharAt var44 378)))
(assert (= "1" (CharAt var25 461)))
(assert (= "w" (CharAt var46 912)))
(assert (= "`" (CharAt var19 192)))
(assert (= "v" (CharAt var38 564)))
(assert (= "s" (CharAt var33 244)))
(assert (= "7" (CharAt var3 990)))
(assert (= ">" (CharAt var40 848)))
(assert (= "$" (CharAt var51 96)))
(assert (= "=" (CharAt var18 347)))
(assert (= "T" (CharAt var19 408)))
(assert (= "!" (CharAt var22 997)))
(assert (= "t" (CharAt var4 766)))
(assert (= "G" (CharAt var56 87)))
(assert (= "\\" (CharAt var56 604)))
(assert (= "m" (CharAt var15 313)))
(assert (= "~" (CharAt var32 901)))
(assert (= "s" (CharAt var52 685)))
(assert (= "E" (CharAt var22 919)))
(assert (= "4" (CharAt var17 862)))
(assert (= "k" (CharAt var17 963)))
(assert (= "<" (CharAt var25 991)))
(assert (= "D" (CharAt var54 316)))
(assert (= "c" (CharAt var52 945)))
(assert (= "e" (CharAt var18 590)))
(assert (= "~" (CharAt var45 539)))
(assert (= "L" (CharAt var41 329)))
(assert (= "|" (CharAt var27 388)))
(assert (= "d" (CharAt var27 376)))
(assert (= "'" (CharAt var40 872)))
(assert (= "X" (CharAt var55 866)))
(assert (= "]" (CharAt var26 373)))
(assert (= "F" (CharAt var7 405)))
(assert (= "B" (CharAt var44 548)))
(assert (= "&" (CharAt var38 642)))
(assert (= "I" (CharAt var27 765)))
(assert (= "I" (CharAt var14 870)))
(assert (= "A" (CharAt var29 453)))
(assert (= ";" (CharAt var37 437)))
(assert (= "F" (CharAt var60 188)))
(assert (= "]" (CharAt var16 589)))
(assert (= "e" (CharAt var38 139)))
(assert (= "+" (CharAt var33 901)))
(assert (= "\\" (CharAt var34 11)))
(assert (= "Q" (CharAt var41 589)))
(assert (= "b" (CharAt var6 871)))
(assert (= "O" (CharAt var2 118)))
(assert (= "0" (CharAt var24 630)))
(assert (= "5" (CharAt var59 814)))
(assert (= "t" (CharAt var56 279)))
(assert (= "q" (CharAt var2 232)))
(assert (= "#" (CharAt var8 324)))
(assert (= "j" (CharAt var9 497)))
(assert (= "R" (CharAt var48 510)))
(assert (= "," (CharAt var21 587)))
(assert (= "p" (CharAt var2 187)))
(assert (= "-" (CharAt var49 141)))
(assert (= "N" (CharAt var12 669)))
(assert (= "O" (CharAt var44 612)))
(assert (= "+" (CharAt var7 257)))
(assert (= "M" (CharAt var29 975)))
(assert (= "v" (CharAt var38 724)))
(assert (= "]" (CharAt var8 314)))
(assert (= "I" (CharAt var39 259)))
(assert (= "C" (CharAt var24 655)))
(assert (= "=" (CharAt var55 726)))
(assert (= ">" (CharAt var34 403)))
(assert (= "@" (CharAt var58 946)))
(assert (= "z" (CharAt var22 77)))
(assert (= "0" (CharAt var11 204)))
(assert (= "-" (CharAt var45 261)))
(assert (= "6" (CharAt var29 53)))
(assert (= "w" (CharAt var34 753)))
(assert (= ")" (CharAt var28 609)))
(assert (= "Q" (CharAt var20 691)))
(assert (= "~" (CharAt var0 147)))
(assert (= "@" (CharAt var51 936)))
(assert (= "_" (CharAt var11 771)))
(assert (= "l" (CharAt var41 912)))
(assert (= "N" (CharAt var11 460)))
(assert (= "X" (CharAt var53 658)))
(assert (= "n" (CharAt var46 654)))
(assert (= "u" (CharAt var12 457)))
(assert (= "%" (CharAt var27 39)))
(assert (= "a" (CharAt var8 40)))
(assert (= "]" (CharAt var26 24)))
(assert (= "g" (CharAt var41 548)))
(assert (= "n" (CharAt var47 220)))
(assert (= "e" (CharAt var31 851)))
(assert (= "P" (CharAt var6 134)))
(assert (= "j" (CharAt var16 174)))
(assert (= "Q" (CharAt var37 140)))
(assert (= ":" (CharAt var56 534)))
(assert (= "!" (CharAt var13 418)))
(assert (= "C" (CharAt var13 643)))
(assert (= "H" (CharAt var38 257)))
(assert (= "h" (CharAt var3 112)))
(assert (= "g" (CharAt var28 75)))
(assert (= "}" (CharAt var37 79)))
(assert (= "U" (CharAt var4 400)))
(assert (= "=" (CharAt var56 726)))
(assert (= "<" (CharAt var29 776)))
(assert (= "}" (CharAt var36 70)))
(assert (= "i" (CharAt var0 519)))
(assert (= "p" (CharAt var9 765)))
(assert (= "C" (CharAt var25 271)))
(assert (= ")" (CharAt var40 773)))
(assert (= "Z" (CharAt var1 548)))
(assert (= "6" (CharAt var34 311)))
(assert (= "K" (CharAt var36 979)))
(assert (= "c" (CharAt var17 136)))
(assert (= "}" (CharAt var26 464)))
(assert (= "v" (CharAt var18 330)))
(assert (= "m" (CharAt var9 310)))
(assert (= "V" (CharAt var3 569)))
(assert (= "u" (CharAt var17 498)))
(assert (= ")" (CharAt var15 32)))
(assert (= "t" (CharAt var55 893)))
(assert (= "%" (CharAt var49 760)))
(assert (= "0" (CharAt var26 768)))
(assert (= "[" (CharAt var18 836)))
(assert (= "," (CharAt var12 5)))
(assert (= "e" (CharAt var60 979)))
(assert (= ";" (CharAt var40 690)))
(assert (= "Y" (CharAt var36 137)))
(assert (= "O" (CharAt var19 89)))
(assert (= "E" (CharAt var43 265)))
(assert (= "w" (CharAt var4 628)))
(assert (= "/" (CharAt var44 783)))
(assert (= "k" (CharAt var43 925)))
(assert (= "6" (CharAt var20 13)))
(assert (= "j" (CharAt var6 157)))
(assert (= "7" (CharAt var53 292)))
(assert (= "}" (CharAt var56 819)))
(assert (= "8" (CharAt var30 600)))
(assert (= ";" (CharAt var34 27)))
(assert (= "{" (CharAt var43 239)))
(assert (= "h" (CharAt var31 683)))
(assert (= "0" (CharAt var28 450)))
(assert (= "#" (CharAt var39 938)))
(assert (= "6" (CharAt var39 187)))
(assert (= ">" (CharAt var48 502)))
(assert (= "J" (CharAt var19 770)))
(assert (= "}" (CharAt var18 345)))
(assert (= "\"" (CharAt var52 42)))
(assert (= "S" (CharAt var54 313)))
(assert (= "}" (CharAt var54 81)))
(assert (= "." (CharAt var47 955)))
(assert (= "x" (CharAt var7 378)))
(assert (= "X" (CharAt var2 728)))
(assert (= "Z" (CharAt var34 586)))
(assert (= ";" (CharAt var57 131)))
(assert (= "J" (CharAt var37 728)))
(assert (= "o" (CharAt var14 638)))
(assert (= "2" (CharAt var22 314)))
(assert (= "(" (CharAt var7 631)))
(assert (= "o" (CharAt var43 215)))
(assert (= "S" (CharAt var1 736)))
(assert (= "\"" (CharAt var45 213)))
(assert (= "w" (CharAt var40 709)))
(assert (= "R" (CharAt var50 336)))
(assert (= "R" (CharAt var23 552)))
(assert (= "M" (CharAt var12 460)))
(assert (= "!" (CharAt var43 577)))
(assert (= "4" (CharAt var48 327)))
(assert (= "1" (CharAt var11 981)))
(assert (= "0" (CharAt var6 341)))
(assert (= "=" (CharAt var41 29)))
(assert (= ";" (CharAt var54 346)))
(assert (= "j" (CharAt var28 856)))
(assert (= "h" (CharAt var58 820)))
(assert (= "z" (CharAt var31 448)))
(assert (= "_" (CharAt var41 52)))
(assert (= "-" (CharAt var6 885)))
(assert (= "E" (CharAt var15 451)))
(assert (= "'" (CharAt var25 630)))
(assert (= "p" (CharAt var4 943)))
(assert (= ";" (CharAt var8 848)))
(assert (= "[" (CharAt var22 76)))
(assert (= "F" (CharAt var41 928)))
(assert (= "-" (CharAt var18 777)))
(assert (= "p" (CharAt var46 761)))
(assert (= "V" (CharAt var25 132)))
(assert (= "l" (CharAt var9 254)))
(assert (= "y" (CharAt var14 169)))
(assert (= "y" (CharAt var30 827)))
(assert (= "e" (CharAt var19 334)))
(assert (= "r" (CharAt var47 996)))
(assert (= ";" (CharAt var6 440)))
(assert (= ")" (CharAt var30 733)))
(assert (= "k" (CharAt var28 373)))
(assert (= "s" (CharAt var17 790)))
(assert (= "}" (CharAt var42 721)))
(assert (= "&" (CharAt var32 331)))
(assert (= "O" (CharAt var23 405)))
(assert (= "!" (CharAt var59 265)))
(assert (= "C" (CharAt var20 458)))
(assert (= "=" (CharAt var50 349)))
(assert (= "a" (CharAt var29 501)))
(assert (= "-" (CharAt var18 230)))
(assert (= "Y" (CharAt var13 162)))
(assert (= "z" (CharAt var50 346)))
(assert (= "." (CharAt var34 697)))
(assert (= "9" (CharAt var42 337)))
(assert (= "9" (CharAt var9 127)))
(assert (= "n" (CharAt var19 791)))
(assert (= "v" (CharAt var14 831)))
(assert (= "C" (CharAt var53 141)))
(assert (= "H" (CharAt var13 929)))
(assert (= ";" (CharAt var36 793)))
(assert (= "I" (CharAt var9 837)))
(assert (= "q" (CharAt var1 31)))
(assert (= "|" (CharAt var54 156)))
(assert (= "J" (CharAt var10 656)))
(assert (= "d" (CharAt var49 820)))
(assert (= "m" (CharAt var60 888)))
(assert (= ":" (CharAt var54 608)))
(assert (= "h" (CharAt var12 770)))
(assert (= "|" (CharAt var53 789)))
(assert (= "#" (CharAt var31 413)))
(assert (= "/" (CharAt var21 466)))
(assert (= ">" (CharAt var2 414)))
(assert (= "V" (CharAt var2 329)))
(assert (= "f" (CharAt var16 555)))
(assert (= ">" (CharAt var26 797)))
(assert (= "U" (CharAt var37 106)))
(assert (= "q" (CharAt var36 932)))
(assert (= "N" (CharAt var49 309)))
(assert (= "r" (CharAt var56 163)))
(assert (= "," (CharAt var6 286)))
(assert (= "." (CharAt var36 111)))
(assert (= "N" (CharAt var31 110)))
(assert (= "=" (CharAt var6 331)))
(assert (= "U" (CharAt var0 810)))
(assert (= "_" (CharAt var52 721)))
(assert (= "T" (CharAt var12 368)))
(assert (= "w" (CharAt var30 181)))
(assert (= "<" (CharAt var33 57)))
(assert (= "\\" (CharAt var26 225)))
(assert (= "v" (CharAt var16 554)))
(assert (= "t" (CharAt var26 185)))
(assert (= "=" (CharAt var12 628)))
(assert (= "P" (CharAt var48 668)))
(assert (= "M" (CharAt var28 516)))
(assert (= "h" (CharAt var0 813)))
(assert (= "Y" (CharAt var54 129)))
(assert (= "w" (CharAt var54 27)))
(assert (= "r" (CharAt var40 882)))
(assert (= "M" (CharAt var59 155)))
(assert (= "z" (CharAt var10 838)))
(assert (= "t" (CharAt var9 776)))
(assert (= "q" (CharAt var59 733)))
(assert (= "}" (CharAt var60 880)))
(assert (= "E" (CharAt var46 68)))
(assert (= "$" (CharAt var16 475)))
(assert (= ";" (CharAt var56 820)))
(assert (= "r" (CharAt var28 868)))
(assert (= "/" (CharAt var28 532)))
(assert (= "S" (CharAt var21 513)))
(assert (= "Z" (CharAt var6 715)))
(assert (= "," (CharAt var49 283)))
(assert (= "u" (CharAt var4 696)))
(assert (= "o" (CharAt var0 761)))
(assert (= "N" (CharAt var39 996)))
(assert (= ">" (CharAt var35 364)))
(assert (= "R" (CharAt var21 791)))
(assert (= "E" (CharAt var52 842)))
(assert (= "F" (CharAt var58 495)))
(assert (= "N" (CharAt var23 352)))
(assert (= "-" (CharAt var26 531)))
(assert (= "_" (CharAt var0 243)))
(assert (= "," (CharAt var30 583)))
(assert (= "U" (CharAt var22 304)))
(assert (= "6" (CharAt var53 979)))
(assert (= "N" (CharAt var5 766)))
(assert (= "$" (CharAt var24 696)))
(assert (= "c" (CharAt var48 982)))
(assert (= "<" (CharAt var22 580)))
(assert (= "H" (CharAt var40 404)))
(assert (= "r" (CharAt var26 564)))
(assert (= "+" (CharAt var36 65)))
(assert (= "Q" (CharAt var42 901)))
(assert (= "9" (CharAt var52 544)))
(assert (= "'" (CharAt var43 31)))
(assert (= "}" (CharAt var60 192)))
(assert (= "D" (CharAt var34 773)))
(assert (= "<" (CharAt var54 975)))
(assert (= ";" (CharAt var46 550)))
(assert (= "t" (CharAt var16 513)))
(assert (= "5" (CharAt var43 135)))
(assert (= "T" (CharAt var25 606)))
(assert (= "S" (CharAt var47 979)))
(assert (= "A" (CharAt var39 412)))
(assert (= "r" (CharAt var60 87)))
(assert (= "v" (CharAt var57 756)))
(assert (= "|" (CharAt var9 558)))
(assert (= "%" (CharAt var43 969)))
(assert (= "G" (CharAt var46 312)))
(assert (= "$" (CharAt var26 576)))
(assert (= "n" (CharAt var37 590)))
(assert (= "u" (CharAt var33 812)))
(assert (= "]" (CharAt var18 14)))
(assert (= "a" (CharAt var11 206)))
(assert (= "*" (CharAt var21 138)))
(assert (= "=" (CharAt var15 582)))
(assert (= "z" (CharAt var40 843)))
(assert (= "j" (CharAt var50 272)))
(assert (= "6" (CharAt var42 398)))
(assert (= "<" (CharAt var12 266)))
(assert (= "{" (CharAt var55 551)))
(assert (= "f" (CharAt var16 940)))
(assert (= "|" (CharAt var5 829)))
(assert (= "S" (CharAt var10 216)))
(assert (= "E" (CharAt var37 407)))
(assert (= "-" (CharAt var7 319)))
(assert (= "M" (CharAt var38 507)))
(assert (= "D" (CharAt var3 266)))
(assert (= "J" (CharAt var47 906)))
(assert (= "m" (CharAt var15 783)))
(assert (= "\"" (CharAt var45 166)))
(assert (= "I" (CharAt var57 93)))
(assert (= "O" (CharAt var45 203)))
(assert (= "'" (CharAt var43 214)))
(assert (= "I" (CharAt var22 145)))
(assert (= "$" (CharAt var25 1000)))
(assert (= "|" (CharAt var46 99)))
(assert (= "w" (CharAt var45 992)))
(assert (= "S" (CharAt var25 87)))
(assert (= "$" (CharAt var27 34)))
(assert (= "3" (CharAt var23 789)))
(assert (= "S" (CharAt var28 467)))
(assert (= "K" (CharAt var36 964)))
(assert (= "p" (CharAt var5 666)))
(assert (= "U" (CharAt var33 837)))
(assert (= "1" (CharAt var52 925)))
(assert (= "I" (CharAt var12 179)))
(assert (= "k" (CharAt var44 229)))
(assert (= "M" (CharAt var50 717)))
(assert (= "r" (CharAt var35 221)))
(assert (= "t" (CharAt var27 176)))
(assert (= "<" (CharAt var48 241)))
(assert (= "m" (CharAt var17 276)))
(assert (= "<" (CharAt var38 279)))
(assert (= "X" (CharAt var47 140)))
(assert (= "h" (CharAt var2 20)))
(assert (= "A" (CharAt var3 825)))
(assert (= "r" (CharAt var0 528)))
(assert (= "W" (CharAt var37 791)))
(assert (= "\"" (CharAt var48 951)))
(assert (= "X" (CharAt var10 545)))
(assert (= "t" (CharAt var35 537)))
(assert (= "/" (CharAt var6 653)))
(assert (= "!" (CharAt var7 406)))
(assert (= "5" (CharAt var33 896)))
(assert (= "v" (CharAt var48 589)))
(assert (= "s" (CharAt var9 463)))
(assert (= "a" (CharAt var32 956)))
(assert (= "u" (CharAt var56 852)))
(assert (= "D" (CharAt var5 581)))
(assert (= "R" (CharAt var36 85)))
(assert (= "5" (CharAt var60 841)))
(assert (= "&" (CharAt var40 520)))
(assert (= "6" (CharAt var46 624)))
(assert (= "9" (CharAt var13 841)))
(assert (= "c" (CharAt var33 111)))
(assert (= "+" (CharAt var12 298)))
(assert (= "}" (CharAt var13 122)))
(assert (= "r" (CharAt var54 865)))
(assert (= "O" (CharAt var10 305)))
(assert (= "D" (CharAt var53 244)))
(assert (= "B" (CharAt var32 336)))
(assert (= "E" (CharAt var33 105)))
(assert (= "C" (CharAt var44 392)))
(assert (= "2" (CharAt var34 25)))
(assert (= "e" (CharAt var25 503)))
(assert (= "E" (CharAt var56 621)))
(assert (= "1" (CharAt var13 312)))
(assert (= "b" (CharAt var24 616)))
(assert (= "-" (CharAt var22 359)))
(assert (= ">" (CharAt var1 444)))
(assert (= "l" (CharAt var40 789)))
(assert (= "W" (CharAt var17 820)))
(assert (= "~" (CharAt var52 448)))
(assert (= "W" (CharAt var59 582)))
(assert (= "@" (CharAt var7 886)))
(assert (= "e" (CharAt var7 692)))
(assert (= "5" (CharAt var23 675)))
(assert (= "|" (CharAt var2 773)))
(assert (= "%" (CharAt var18 310)))
(assert (= "^" (CharAt var6 830)))
(assert (= "q" (CharAt var28 935)))
(assert (= "P" (CharAt var3 155)))
(assert (= "+" (CharAt var12 554)))
(assert (= "|" (CharAt var41 474)))
(assert (= "r" (CharAt var14 572)))
(assert (= "d" (CharAt var47 289)))
(assert (= "_" (CharAt var1 954)))
(assert (= "o" (CharAt var54 34)))
(assert (= "," (CharAt var52 896)))
(assert (= "b" (CharAt var49 408)))
(assert (= "R" (CharAt var11 585)))
(assert (= "r" (CharAt var17 794)))
(assert (= "g" (CharAt var15 666)))
(assert (= "W" (CharAt var11 807)))
(assert (= "=" (CharAt var50 870)))
(assert (= "q" (CharAt var3 678)))
(assert (= "@" (CharAt var5 214)))
(assert (= "^" (CharAt var4 76)))
(assert (= "[" (CharAt var58 273)))
(assert (= "B" (CharAt var50 484)))
(assert (= "\\" (CharAt var21 967)))
(assert (= "!" (CharAt var40 752)))
(assert (= "d" (CharAt var60 339)))
(assert (= "a" (CharAt var13 771)))
(assert (= "=" (CharAt var25 408)))
(assert (= ":" (CharAt var37 770)))
(assert (= "u" (CharAt var12 487)))
(assert (= "u" (CharAt var35 933)))
(assert (= "4" (CharAt var6 569)))
(assert (= "A" (CharAt var1 495)))
(assert (= "h" (CharAt var51 524)))
(assert (= "9" (CharAt var57 558)))
(assert (= "A" (CharAt var51 808)))
(assert (= "~" (CharAt var11 55)))
(assert (= "/" (CharAt var23 171)))
(assert (= "x" (CharAt var44 357)))
(assert (= "i" (CharAt var28 906)))
(assert (= "~" (CharAt var35 542)))
(assert (= "^" (CharAt var52 841)))
(assert (= "I" (CharAt var46 162)))
(assert (= "~" (CharAt var39 450)))
(assert (= "~" (CharAt var47 988)))
(assert (= "`" (CharAt var50 712)))
(assert (= "!" (CharAt var59 856)))
(assert (= ">" (CharAt var23 670)))
(assert (= "K" (CharAt var60 588)))
(assert (= "e" (CharAt var1 321)))
(assert (= "~" (CharAt var39 473)))
(assert (= ":" (CharAt var28 1000)))
(assert (= "y" (CharAt var4 465)))
(assert (= "f" (CharAt var15 484)))
(assert (= "n" (CharAt var40 545)))
(assert (= "4" (CharAt var34 976)))
(assert (= "@" (CharAt var47 632)))
(assert (= "a" (CharAt var6 209)))
(assert (= "b" (CharAt var0 51)))
(assert (= "q" (CharAt var3 122)))
(assert (= "X" (CharAt var13 356)))
(assert (= "-" (CharAt var41 774)))
(assert (= "!" (CharAt var11 873)))
(assert (= "G" (CharAt var57 809)))
(assert (= "|" (CharAt var41 655)))
(assert (= "s" (CharAt var30 724)))
(assert (= "N" (CharAt var28 774)))
(assert (= "z" (CharAt var2 776)))
(assert (= "W" (CharAt var16 897)))
(assert (= "!" (CharAt var10 39)))
(assert (= "t" (CharAt var47 844)))
(assert (= "D" (CharAt var44 720)))
(assert (= "f" (CharAt var59 948)))
(assert (= "7" (CharAt var14 542)))
(assert (= "c" (CharAt var58 90)))
(assert (= "X" (CharAt var55 908)))
(assert (= "6" (CharAt var52 90)))
(assert (= "'" (CharAt var44 504)))
(assert (= "=" (CharAt var58 89)))
(assert (= "1" (CharAt var22 454)))
(assert (= ")" (CharAt var5 434)))
(assert (= "R" (CharAt var54 620)))
(assert (= "'" (CharAt var42 135)))
(assert (= "Y" (CharAt var57 144)))
(assert (= "l" (CharAt var37 335)))
(assert (= "6" (CharAt var51 880)))
(assert (= "y" (CharAt var48 37)))
(assert (= "<" (CharAt var31 741)))
(assert (= "{" (CharAt var56 934)))
(assert (= "d" (CharAt var3 986)))
(assert (= "c" (CharAt var17 410)))
(assert (= "|" (CharAt var55 511)))
(assert (= "c" (CharAt var26 86)))
(assert (= "C" (CharAt var19 405)))
(assert (= "i" (CharAt var48 183)))
(assert (= "{" (CharAt var7 277)))
(assert (= "`" (CharAt var22 146)))
(assert (= "R" (CharAt var7 750)))
(assert (= "*" (CharAt var16 703)))
(assert (= "i" (CharAt var16 551)))
(assert (= "3" (CharAt var5 987)))
(assert (= "8" (CharAt var51 940)))
(assert (= "%" (CharAt var39 530)))
(assert (= "!" (CharAt var46 852)))
(assert (= "r" (CharAt var40 65)))
(assert (= "~" (CharAt var59 324)))
(assert (= "Y" (CharAt var54 965)))
(assert (= "?" (CharAt var42 233)))
(assert (= "A" (CharAt var31 87)))
(assert (= "2" (CharAt var9 551)))
(assert (= "~" (CharAt var47 435)))
(assert (= "7" (CharAt var42 921)))
(assert (= "F" (CharAt var11 734)))
(assert (= "[" (CharAt var45 831)))
(assert (= "k" (CharAt var15 827)))
(assert (= "L" (CharAt var3 784)))
(assert (= "$" (CharAt var42 145)))
(assert (= "-" (CharAt var16 472)))
(assert (= "P" (CharAt var48 991)))
(assert (= "q" (CharAt var30 972)))
(assert (= "I" (CharAt var5 536)))
(assert (= "C" (CharAt var9 915)))
(assert (= "/" (CharAt var35 64)))
(assert (= "u" (CharAt var32 293)))
(assert (= "[" (CharAt var17 785)))
(assert (= "b" (CharAt var55 650)))
(assert (= "S" (CharAt var13 66)))
(assert (= "i" (CharAt var1 28)))
(assert (= "W" (CharAt var26 981)))
(assert (= "u" (CharAt var5 970)))
(assert (= "N" (CharAt var12 866)))
(assert (= "~" (CharAt var14 189)))
(assert (= "q" (CharAt var7 253)))
(assert (= "!" (CharAt var35 279)))
(assert (= "N" (CharAt var28 946)))
(assert (= "n" (CharAt var26 661)))
(assert (= "P" (CharAt var48 935)))
(assert (= "@" (CharAt var37 178)))
(assert (= "`" (CharAt var43 4)))
(assert (= "&" (CharAt var2 221)))
(assert (= ":" (CharAt var18 26)))
(assert (= "[" (CharAt var18 33)))
(assert (= "(" (CharAt var56 518)))
(assert (= "'" (CharAt var58 242)))
(assert (= "=" (CharAt var10 73)))
(assert (= "[" (CharAt var33 887)))
(assert (= ":" (CharAt var8 771)))
(assert (= "N" (CharAt var15 152)))
(assert (= "%" (CharAt var9 185)))
(assert (= "V" (CharAt var9 731)))
(assert (= "d" (CharAt var5 304)))
(assert (= "p" (CharAt var4 627)))
(assert (= "Y" (CharAt var24 615)))
(assert (= "Z" (CharAt var29 888)))
(assert (= "M" (CharAt var34 569)))
(assert (= "i" (CharAt var13 209)))
(assert (= ":" (CharAt var14 916)))
(assert (= "," (CharAt var19 484)))
(assert (= "." (CharAt var16 252)))
(assert (= "^" (CharAt var1 76)))
(assert (= "\"" (CharAt var18 467)))
(assert (= "n" (CharAt var43 790)))
(assert (= "[" (CharAt var56 713)))
(assert (= "J" (CharAt var14 350)))
(assert (= "z" (CharAt var3 763)))
(assert (= "g" (CharAt var38 292)))
(assert (= "G" (CharAt var60 879)))
(assert (= "[" (CharAt var1 636)))
(assert (= "\"" (CharAt var31 457)))
(assert (= "7" (CharAt var27 828)))
(assert (= "s" (CharAt var18 710)))
(assert (= "y" (CharAt var59 758)))
(assert (= "B" (CharAt var22 53)))
(assert (= "9" (CharAt var36 249)))
(assert (= "q" (CharAt var6 432)))
(assert (= "z" (CharAt var10 329)))
(assert (= "O" (CharAt var22 394)))
(assert (= "c" (CharAt var34 918)))
(assert (= "L" (CharAt var28 191)))
(assert (= "!" (CharAt var15 444)))
(assert (= "c" (CharAt var21 412)))
(assert (= "K" (CharAt var16 118)))
(assert (= "w" (CharAt var48 624)))
(assert (= "." (CharAt var1 177)))
(assert (= "I" (CharAt var14 859)))
(assert (= "t" (CharAt var2 665)))
(assert (= "q" (CharAt var15 824)))
(assert (= ")" (CharAt var43 568)))
(assert (= "r" (CharAt var60 141)))
(assert (= ";" (CharAt var54 672)))
(assert (= "x" (CharAt var7 213)))
(assert (= ">" (CharAt var55 467)))
(assert (= "W" (CharAt var6 216)))
(assert (= "A" (CharAt var49 590)))
(assert (= "." (CharAt var19 480)))
(assert (= "!" (CharAt var19 818)))
(assert (= "i" (CharAt var0 192)))
(assert (= "6" (CharAt var20 978)))
(assert (= "S" (CharAt var26 926)))
(assert (= "\"" (CharAt var14 927)))
(assert (= "2" (CharAt var4 423)))
(assert (= "F" (CharAt var27 51)))
(check-sat)
(get-model)